************************************************************************
file with basedata            : mm45_.bas
initial value random generator: 1060761169
************************************************************************
projects                      :  1
jobs (incl. supersource/sink ):  12
horizon                       :  77
RESOURCES
  - renewable                 :  2   R
  - nonrenewable              :  2   N
  - doubly constrained        :  0   D
************************************************************************
PROJECT INFORMATION:
pronr.  #jobs rel.date duedate tardcost  MPM-Time
    1     10      0       12        8       12
************************************************************************
PRECEDENCE RELATIONS:
jobnr.    #modes  #successors   successors
   0        1          3           1   2   3
   1        3          1           4
   2        3          2           8   9
   3        3          1          10
   4        3          3           5   6   7
   5        3          1           9
   6        3          3           8   9  10
   7        3          1          10
   8        3          1          11
   9        3          1          11
  10        3          1          11
  11        1          0        
************************************************************************
REQUESTS/DURATIONS:
jobnr. mode duration  R 1  R 2  R 3  R 4  E(W 1)
------------------------------------------------------------------------
  0      1     0       0    0    0    0     0
  1      1     6       7   10    8    7    192
  2      1     1       9    1    6    8    25
  3      1     1       7    4   10    5    26
  4      1     1      10    9    4    8    31
  5      1     1       8    9    6    7    30
  6      1     1       5    8    5    2    20
  7      1     1       5    9    3    7    24
  8      1     4       8    8    7    9    128
  9      1     1       9    9    6    9    33
 10      1     2       7    6    8    6    54
 11      1     0       0    0    0    0     0
************************************************************************
RESOURCEAVAILABILITIES:
  R 1
   131
************************************************************************
RESOURCE LIMITS:
jobnr.  l(R 1)  u(R 1)
------------------------------------------------------------------------
  0        0       0
  1       17      32
  2       13      25
  3       14      26
  4       16      31
  5       16      30
  6       11      20
  7       14      24
  8       17      32
  9       18      33
 10       14      27
 11        0       0
************************************************************************
SCENARIOS:
------------------------------------------------------------------------
RESOURCE k = 1
s = 1: (0, 251, 20, 15, 45, 27, 19, 25, 73, 31, 34, 0)
s = 2: (0, 157, 35, 46, 46, 31, 30, 14, 91, 32, 49, 0)
s = 3: (0, 120, 24, 21, 26, 22, 14, 20, 113, 29, 64, 0)
s = 4: (0, 159, 15, 21, 25, 21, 14, 27, 78, 45, 77, 0)
s = 5: (0, 163, 26, 28, 20, 43, 17, 31, 106, 30, 41, 0)
s = 6: (0, 221, 36, 26, 34, 34, 18, 17, 69, 53, 80, 0)
s = 7: (0, 148, 23, 31, 38, 30, 19, 16, 113, 33, 48, 0)
s = 8: (0, 230, 21, 24, 30, 20, 29, 17, 95, 36, 70, 0)
s = 9: (0, 238, 27, 22, 19, 29, 18, 30, 198, 39, 42, 0)
s = 10: (0, 218, 19, 35, 22, 39, 27, 19, 160, 44, 65, 0)
s = 11: (0, 132, 39, 24, 31, 26, 22, 25, 138, 26, 45, 0)
s = 12: (0, 100, 40, 31, 38, 20, 19, 24, 169, 26, 53, 0)
s = 13: (0, 219, 18, 21, 31, 34, 25, 25, 150, 29, 38, 0)
s = 14: (0, 252, 20, 46, 30, 22, 11, 40, 104, 24, 43, 0)
s = 15: (0, 270, 19, 22, 20, 27, 17, 34, 174, 20, 72, 0)
s = 16: (0, 206, 16, 36, 24, 33, 18, 25, 72, 43, 44, 0)
s = 17: (0, 141, 21, 24, 25, 29, 16, 38, 100, 21, 63, 0)
s = 18: (0, 211, 33, 18, 23, 33, 13, 16, 203, 39, 50, 0)
s = 19: (0, 207, 19, 19, 35, 28, 11, 26, 85, 39, 48, 0)
s = 20: (0, 157, 19, 18, 37, 29, 28, 18, 77, 20, 53, 0)
s = 21: (0, 250, 37, 25, 23, 20, 19, 22, 150, 26, 51, 0)
s = 22: (0, 250, 43, 20, 24, 17, 12, 21, 201, 39, 81, 0)
s = 23: (0, 154, 16, 33, 35, 30, 15, 25, 137, 20, 43, 0)
s = 24: (0, 185, 29, 27, 25, 28, 31, 21, 111, 32, 52, 0)
s = 25: (0, 222, 22, 33, 22, 23, 27, 18, 111, 29, 73, 0)
s = 26: (0, 271, 25, 14, 57, 34, 16, 20, 122, 31, 98, 0)
s = 27: (0, 257, 22, 24, 41, 34, 29, 21, 125, 34, 78, 0)
s = 28: (0, 202, 25, 16, 21, 36, 13, 27, 130, 37, 73, 0)
s = 29: (0, 269, 37, 24, 25, 31, 17, 18, 130, 30, 40, 0)
s = 30: (0, 269, 22, 38, 37, 43, 23, 21, 208, 36, 44, 0)
s = 31: (0, 169, 16, 20, 35, 41, 23, 20, 140, 51, 51, 0)
s = 32: (0, 199, 17, 26, 31, 32, 17, 28, 105, 24, 35, 0)
s = 33: (0, 188, 29, 19, 36, 38, 26, 20, 173, 28, 79, 0)
s = 34: (0, 143, 23, 33, 24, 31, 23, 36, 93, 52, 84, 0)
s = 35: (0, 137, 24, 39, 24, 23, 20, 15, 127, 29, 47, 0)
s = 36: (0, 156, 27, 24, 36, 23, 17, 39, 118, 30, 66, 0)
s = 37: (0, 247, 26, 21, 36, 26, 16, 35, 173, 35, 88, 0)
s = 38: (0, 240, 23, 23, 24, 23, 27, 30, 115, 36, 95, 0)
s = 39: (0, 226, 27, 29, 26, 37, 19, 15, 124, 25, 47, 0)
s = 40: (0, 184, 22, 40, 44, 19, 27, 21, 93, 30, 40, 0)
s = 41: (0, 166, 19, 17, 33, 37, 24, 22, 125, 31, 59, 0)
s = 42: (0, 230, 33, 17, 28, 30, 19, 16, 93, 26, 56, 0)
s = 43: (0, 127, 34, 25, 45, 32, 24, 18, 110, 24, 56, 0)
s = 44: (0, 148, 23, 18, 21, 24, 21, 29, 90, 22, 73, 0)
s = 45: (0, 145, 39, 19, 27, 43, 25, 16, 167, 28, 52, 0)
s = 46: (0, 159, 24, 28, 41, 28, 21, 15, 142, 28, 43, 0)
s = 47: (0, 263, 17, 23, 26, 32, 27, 24, 95, 49, 60, 0)
s = 48: (0, 133, 15, 21, 21, 25, 24, 19, 144, 30, 36, 0)
s = 49: (0, 172, 24, 26, 21, 17, 25, 33, 140, 49, 67, 0)
s = 50: (0, 274, 39, 31, 23, 23, 25, 21, 132, 45, 46, 0)
s = 51: (0, 158, 45, 21, 23, 45, 23, 23, 109, 32, 54, 0)
s = 52: (0, 263, 21, 24, 31, 22, 29, 31, 115, 26, 54, 0)
s = 53: (0, 355, 27, 17, 32, 21, 15, 39, 118, 45, 51, 0)
s = 54: (0, 130, 18, 30, 42, 18, 18, 20, 147, 44, 52, 0)
s = 55: (0, 202, 30, 23, 26, 22, 20, 24, 171, 22, 39, 0)
s = 56: (0, 137, 25, 17, 36, 20, 14, 23, 151, 25, 37, 0)
s = 57: (0, 122, 29, 19, 25, 19, 22, 25, 98, 40, 40, 0)
s = 58: (0, 131, 21, 33, 20, 26, 16, 18, 140, 32, 37, 0)
s = 59: (0, 134, 20, 23, 27, 43, 23, 37, 155, 46, 66, 0)
s = 60: (0, 201, 17, 16, 27, 22, 14, 22, 140, 33, 42, 0)
s = 61: (0, 168, 29, 35, 28, 21, 18, 25, 163, 36, 48, 0)
s = 62: (0, 258, 25, 35, 43, 35, 15, 21, 141, 38, 73, 0)
s = 63: (0, 144, 19, 28, 32, 43, 30, 14, 91, 24, 36, 0)
s = 64: (0, 253, 22, 18, 21, 52, 22, 21, 177, 26, 45, 0)
s = 65: (0, 201, 22, 20, 29, 21, 15, 22, 83, 31, 38, 0)
s = 66: (0, 247, 22, 21, 31, 30, 21, 21, 94, 32, 49, 0)
s = 67: (0, 159, 26, 19, 24, 33, 25, 23, 102, 25, 55, 0)
s = 68: (0, 187, 23, 37, 26, 22, 19, 24, 114, 31, 41, 0)
s = 69: (0, 279, 22, 30, 24, 22, 15, 36, 93, 32, 40, 0)
s = 70: (0, 136, 33, 18, 29, 46, 29, 22, 155, 32, 56, 0)
s = 71: (0, 187, 25, 18, 17, 20, 21, 29, 171, 50, 42, 0)
s = 72: (0, 172, 21, 18, 29, 36, 17, 25, 163, 32, 92, 0)
s = 73: (0, 221, 20, 20, 43, 36, 15, 28, 102, 26, 60, 0)
s = 74: (0, 279, 19, 22, 51, 33, 14, 25, 122, 20, 37, 0)
s = 75: (0, 154, 25, 32, 28, 20, 23, 28, 70, 34, 56, 0)
s = 76: (0, 377, 29, 20, 30, 34, 28, 23, 151, 48, 76, 0)
s = 77: (0, 114, 28, 21, 32, 18, 13, 25, 137, 20, 38, 0)
s = 78: (0, 195, 43, 21, 26, 34, 29, 25, 104, 30, 55, 0)
s = 79: (0, 125, 31, 20, 22, 29, 16, 37, 142, 38, 39, 0)
s = 80: (0, 174, 22, 23, 29, 37, 22, 17, 89, 19, 51, 0)
s = 81: (0, 122, 20, 37, 23, 36, 19, 20, 148, 26, 51, 0)
s = 82: (0, 207, 26, 28, 23, 39, 22, 16, 172, 32, 33, 0)
s = 83: (0, 259, 43, 30, 24, 23, 17, 28, 128, 40, 66, 0)
s = 84: (0, 214, 33, 29, 37, 22, 22, 29, 97, 25, 49, 0)
s = 85: (0, 227, 26, 18, 19, 25, 16, 30, 132, 46, 34, 0)
s = 86: (0, 184, 41, 23, 42, 36, 18, 23, 109, 31, 47, 0)
s = 87: (0, 165, 18, 24, 33, 33, 26, 28, 159, 37, 53, 0)
s = 88: (0, 267, 31, 22, 37, 32, 23, 15, 83, 34, 63, 0)
s = 89: (0, 264, 25, 27, 31, 23, 15, 19, 119, 24, 69, 0)
s = 90: (0, 265, 32, 18, 39, 27, 18, 20, 120, 52, 81, 0)
s = 91: (0, 204, 20, 26, 39, 22, 26, 29, 99, 25, 46, 0)
s = 92: (0, 247, 21, 22, 43, 16, 22, 17, 106, 24, 47, 0)
s = 93: (0, 138, 32, 16, 42, 27, 33, 29, 119, 36, 56, 0)
s = 94: (0, 212, 39, 36, 30, 28, 20, 14, 136, 32, 36, 0)
s = 95: (0, 278, 34, 24, 26, 49, 16, 19, 145, 23, 48, 0)
s = 96: (0, 194, 26, 39, 34, 35, 30, 17, 150, 23, 41, 0)
s = 97: (0, 321, 17, 19, 46, 36, 12, 29, 80, 41, 48, 0)
s = 98: (0, 250, 27, 19, 33, 27, 13, 42, 187, 42, 51, 0)
s = 99: (0, 134, 23, 32, 28, 27, 26, 17, 86, 35, 88, 0)
s = 100: (0, 229, 18, 25, 39, 19, 22, 27, 171, 21, 41, 0)
s = 101: (0, 148, 31, 24, 27, 41, 12, 20, 114, 25, 53, 0)
s = 102: (0, 296, 23, 21, 26, 35, 13, 15, 102, 52, 67, 0)
s = 103: (0, 119, 20, 25, 21, 36, 20, 22, 163, 46, 89, 0)
s = 104: (0, 128, 21, 19, 24, 26, 14, 19, 178, 39, 51, 0)
s = 105: (0, 275, 23, 16, 42, 20, 14, 23, 106, 32, 75, 0)
s = 106: (0, 142, 27, 23, 25, 34, 31, 26, 185, 40, 46, 0)
s = 107: (0, 123, 18, 37, 38, 31, 23, 19, 143, 28, 54, 0)
s = 108: (0, 108, 18, 25, 40, 34, 17, 16, 119, 41, 60, 0)
s = 109: (0, 139, 22, 34, 22, 30, 24, 18, 104, 24, 49, 0)
s = 110: (0, 193, 28, 25, 38, 30, 14, 18, 137, 36, 53, 0)
s = 111: (0, 202, 24, 28, 42, 46, 25, 26, 163, 25, 55, 0)
s = 112: (0, 122, 15, 30, 31, 19, 20, 26, 240, 37, 44, 0)
s = 113: (0, 211, 20, 35, 49, 44, 16, 22, 83, 32, 57, 0)
s = 114: (0, 246, 31, 18, 28, 17, 14, 19, 154, 48, 30, 0)
s = 115: (0, 169, 36, 19, 22, 31, 12, 19, 139, 35, 72, 0)
s = 116: (0, 179, 27, 26, 24, 18, 21, 25, 119, 36, 66, 0)
s = 117: (0, 207, 19, 41, 31, 37, 25, 19, 119, 57, 45, 0)
s = 118: (0, 235, 24, 23, 42, 18, 29, 17, 96, 22, 62, 0)
s = 119: (0, 237, 33, 29, 22, 27, 26, 26, 117, 32, 55, 0)
s = 120: (0, 246, 34, 34, 23, 48, 21, 26, 140, 24, 52, 0)
s = 121: (0, 178, 45, 20, 34, 42, 20, 24, 159, 26, 62, 0)
s = 122: (0, 156, 38, 20, 24, 29, 14, 31, 143, 20, 67, 0)
s = 123: (0, 341, 24, 31, 20, 29, 22, 24, 77, 23, 38, 0)
s = 124: (0, 295, 26, 36, 35, 48, 18, 16, 124, 35, 67, 0)
s = 125: (0, 189, 23, 22, 36, 33, 17, 40, 84, 32, 43, 0)
s = 126: (0, 205, 20, 30, 24, 32, 20, 24, 132, 27, 39, 0)
s = 127: (0, 231, 31, 20, 41, 23, 28, 32, 90, 51, 41, 0)
s = 128: (0, 275, 29, 47, 23, 19, 25, 22, 171, 44, 40, 0)
s = 129: (0, 202, 33, 26, 29, 31, 22, 24, 103, 21, 71, 0)
s = 130: (0, 181, 25, 30, 41, 17, 19, 27, 112, 24, 74, 0)
s = 131: (0, 214, 27, 34, 31, 27, 15, 15, 129, 41, 60, 0)
s = 132: (0, 176, 24, 34, 41, 26, 15, 23, 110, 37, 69, 0)
s = 133: (0, 234, 26, 26, 44, 25, 24, 21, 179, 36, 54, 0)
s = 134: (0, 243, 23, 28, 46, 30, 16, 16, 115, 40, 64, 0)
s = 135: (0, 152, 18, 29, 32, 29, 20, 27, 134, 44, 38, 0)
s = 136: (0, 316, 23, 41, 37, 38, 20, 17, 83, 59, 32, 0)
s = 137: (0, 218, 22, 24, 33, 23, 21, 14, 182, 46, 38, 0)
s = 138: (0, 121, 28, 17, 41, 32, 22, 20, 91, 29, 68, 0)
s = 139: (0, 161, 17, 26, 24, 26, 13, 35, 141, 32, 33, 0)
s = 140: (0, 226, 41, 15, 31, 34, 20, 22, 86, 44, 48, 0)
s = 141: (0, 150, 26, 18, 42, 18, 26, 20, 100, 34, 78, 0)
s = 142: (0, 209, 22, 37, 40, 36, 18, 30, 151, 32, 67, 0)
s = 143: (0, 182, 48, 15, 26, 25, 25, 22, 77, 37, 38, 0)
s = 144: (0, 163, 25, 16, 22, 37, 20, 23, 170, 50, 45, 0)
s = 145: (0, 131, 18, 23, 24, 21, 28, 25, 97, 44, 50, 0)
s = 146: (0, 182, 32, 29, 20, 30, 20, 15, 127, 34, 49, 0)
s = 147: (0, 164, 24, 29, 34, 19, 22, 21, 192, 22, 70, 0)
s = 148: (0, 215, 19, 24, 46, 25, 18, 14, 169, 37, 90, 0)
s = 149: (0, 161, 32, 43, 26, 38, 20, 16, 146, 43, 70, 0)
s = 150: (0, 301, 18, 22, 36, 31, 27, 35, 110, 21, 67, 0)
s = 151: (0, 203, 20, 22, 51, 36, 17, 34, 150, 31, 43, 0)
s = 152: (0, 237, 25, 34, 39, 45, 27, 23, 124, 36, 40, 0)
s = 153: (0, 193, 31, 29, 25, 34, 20, 21, 129, 27, 62, 0)
s = 154: (0, 286, 21, 31, 30, 23, 25, 27, 138, 20, 60, 0)
s = 155: (0, 177, 19, 23, 25, 23, 14, 19, 155, 23, 41, 0)
s = 156: (0, 187, 24, 30, 34, 25, 16, 18, 128, 49, 46, 0)
s = 157: (0, 180, 34, 31, 28, 30, 16, 25, 220, 31, 74, 0)
s = 158: (0, 304, 23, 22, 32, 43, 17, 22, 99, 37, 85, 0)
s = 159: (0, 163, 23, 15, 25, 23, 25, 17, 135, 37, 41, 0)
s = 160: (0, 117, 43, 28, 29, 32, 20, 24, 83, 25, 67, 0)
s = 161: (0, 169, 42, 22, 21, 33, 15, 20, 145, 30, 66, 0)
s = 162: (0, 134, 30, 20, 31, 23, 30, 27, 81, 38, 72, 0)
s = 163: (0, 207, 23, 16, 27, 17, 33, 26, 81, 38, 69, 0)
s = 164: (0, 123, 22, 43, 48, 25, 23, 31, 146, 22, 49, 0)
s = 165: (0, 289, 33, 27, 24, 28, 18, 31, 136, 40, 80, 0)
s = 166: (0, 261, 35, 43, 35, 21, 16, 22, 108, 39, 64, 0)
s = 167: (0, 134, 26, 17, 36, 21, 21, 28, 98, 24, 32, 0)
s = 168: (0, 317, 29, 19, 26, 49, 12, 26, 148, 31, 60, 0)
s = 169: (0, 106, 15, 34, 17, 41, 18, 21, 138, 37, 32, 0)
s = 170: (0, 194, 28, 43, 40, 44, 23, 18, 166, 31, 76, 0)
s = 171: (0, 209, 19, 31, 22, 37, 16, 32, 150, 39, 37, 0)
s = 172: (0, 137, 21, 36, 47, 31, 19, 35, 178, 27, 86, 0)
s = 173: (0, 195, 20, 19, 27, 20, 24, 22, 176, 35, 81, 0)
s = 174: (0, 224, 18, 29, 25, 22, 17, 19, 93, 40, 52, 0)
s = 175: (0, 290, 17, 17, 34, 35, 23, 39, 106, 27, 40, 0)
s = 176: (0, 148, 19, 26, 43, 31, 20, 23, 208, 46, 67, 0)
s = 177: (0, 204, 24, 20, 33, 22, 21, 24, 83, 44, 38, 0)
s = 178: (0, 148, 23, 37, 46, 25, 19, 24, 109, 26, 46, 0)
s = 179: (0, 296, 19, 18, 25, 24, 28, 25, 136, 31, 35, 0)
s = 180: (0, 142, 28, 35, 32, 30, 15, 21, 119, 30, 60, 0)
s = 181: (0, 218, 20, 25, 20, 31, 12, 32, 74, 30, 40, 0)
s = 182: (0, 196, 29, 40, 27, 41, 21, 21, 122, 23, 49, 0)
s = 183: (0, 152, 25, 15, 30, 32, 15, 16, 125, 36, 41, 0)
s = 184: (0, 122, 17, 19, 25, 31, 27, 30, 137, 40, 50, 0)
s = 185: (0, 121, 19, 25, 24, 56, 30, 18, 168, 28, 61, 0)
s = 186: (0, 232, 22, 17, 24, 36, 22, 33, 142, 34, 75, 0)
s = 187: (0, 207, 25, 24, 39, 26, 19, 17, 120, 31, 34, 0)
s = 188: (0, 238, 30, 24, 38, 35, 28, 33, 90, 32, 49, 0)
s = 189: (0, 164, 16, 21, 18, 29, 18, 13, 139, 28, 50, 0)
s = 190: (0, 166, 45, 49, 20, 31, 31, 25, 128, 24, 43, 0)
s = 191: (0, 272, 22, 25, 28, 22, 21, 32, 169, 20, 77, 0)
s = 192: (0, 225, 28, 34, 30, 38, 11, 18, 129, 35, 67, 0)
s = 193: (0, 175, 27, 22, 35, 25, 17, 34, 113, 35, 72, 0)
s = 194: (0, 102, 16, 22, 36, 23, 14, 22, 98, 20, 51, 0)
s = 195: (0, 292, 33, 27, 40, 23, 12, 19, 167, 36, 50, 0)
s = 196: (0, 262, 39, 30, 22, 27, 21, 29, 75, 24, 33, 0)
s = 197: (0, 217, 24, 33, 20, 29, 21, 25, 139, 29, 67, 0)
s = 198: (0, 334, 24, 33, 51, 19, 17, 25, 139, 23, 62, 0)
s = 199: (0, 116, 32, 27, 28, 24, 15, 18, 91, 45, 57, 0)
s = 200: (0, 200, 33, 21, 19, 26, 26, 20, 184, 42, 36, 0)
************************************************************************
ES/LS-VALUES:
jobnr.   ES(i)    LS(i)
------------------------------------------------------------------------
  0        0        0
  1        0       53
  2        0       67
  3        0       71
  4       11       65
  5       12       73
  6       12       67
  7       12       71
  8       13       69
  9       13       75
 10       13       73
 11       20       77
************************************************************************
BIG-M-VALUES:
M1 = 23, M2 = 377
************************************************************************
